language Essence 1.3

letting blksize_delta be
        function(1 --> 9, 2 --> 9, 3 --> 10, 4 --> 9, 5 --> 10, 6 --> 9, 7 --> 9, 8 --> 9, 9 --> 9, 10 --> 9, 11 --> 9,
                 12 --> 10, 13 --> 9, 14 --> 9, 15 --> 9, 16 --> 9, 17 --> 9, 18 --> 9, 19 --> 9, 20 --> 9, 21 --> 9,
                 22 --> 9)
letting maxcars be
        function(1 --> 10, 2 --> 10, 3 --> 10, 4 --> 10, 5 --> 10, 6 --> 10, 7 --> 10, 8 --> 10, 9 --> 10, 10 --> 10,
                 11 --> 10, 12 --> 10, 13 --> 10, 14 --> 10, 15 --> 10, 16 --> 10, 17 --> 10, 18 --> 10, 19 --> 10,
                 20 --> 10, 21 --> 10, 22 --> 10)
letting n_cars be 223
letting n_classes be 35
letting n_options be 22
letting quantity be
        function(1 --> 6, 2 --> 8, 3 --> 6, 4 --> 6, 5 --> 16, 6 --> 6, 7 --> 6, 8 --> 6, 9 --> 6, 10 --> 6, 11 --> 6,
                 12 --> 6, 13 --> 6, 14 --> 6, 15 --> 6, 16 --> 7, 17 --> 6, 18 --> 6, 19 --> 6, 20 --> 6, 21 --> 6,
                 22 --> 6, 23 --> 6, 24 --> 6, 25 --> 6, 26 --> 6, 27 --> 6, 28 --> 6, 29 --> 6, 30 --> 6, 31 --> 6,
                 32 --> 6, 33 --> 6, 34 --> 6, 35 --> 6)
letting usage be
        relation((1, 10), (1, 21), (2, 6), (2, 18), (2, 19), (2, 22), (3, 6), (3, 15), (4, 7), (4, 11), (4, 17), (5, 7),
                 (5, 15), (6, 1), (6, 14), (7, 3), (8, 22), (9, 4), (10, 4), (10, 16), (10, 21), (11, 16), (11, 17),
                 (12, 12), (12, 14), (13, 2), (14, 19), (15, 7), (15, 22), (16, 2), (16, 4), (16, 6), (16, 18), (17, 2),
                 (17, 13), (18, 4), (18, 21), (19, 9), (19, 13), (19, 20), (20, 4), (20, 8), (20, 15), (20, 21),
                 (21, 7), (21, 18), (21, 21), (21, 22), (22, 10), (22, 18), (23, 5), (23, 6), (23, 19), (23, 22),
                 (24, 4), (24, 12), (24, 19), (25, 3), (25, 10), (25, 21), (26, 6), (26, 16), (27, 2), (27, 8),
                 (27, 17), (28, 7), (28, 17), (28, 18), (29, 2), (29, 7), (29, 18), (30, 10), (30, 12), (30, 17),
                 (31, 1), (31, 15), (31, 21), (32, 3), (32, 18), (32, 21), (33, 5), (33, 20), (34, 10), (35, 7),
                 (35, 19))
$ Visualisation for usage
$  1 10
$  1 21
$  2  6
$  2 18
$  2 19
$  2 22
$  3  6
$  3 15
$  4  7
$  4 11
$  4 17
$  5  7
$  5 15
$  6  1
$  6 14
$  7  3
$  8 22
$  9  4
$ 10  4
$ 10 16
$ 10 21
$ 11 16
$ 11 17
$ 12 12
$ 12 14
$ 13  2
$ 14 19
$ 15  7
$ 15 22
$ 16  2
$ 16  4
$ 16  6
$ 16 18
$ 17  2
$ 17 13
$ 18  4
$ 18 21
$ 19  9
$ 19 13
$ 19 20
$ 20  4
$ 20  8
$ 20 15
$ 20 21
$ 21  7
$ 21 18
$ 21 21
$ 21 22
$ 22 10
$ 22 18
$ 23  5
$ 23  6
$ 23 19
$ 23 22
$ 24  4
$ 24 12
$ 24 19
$ 25  3
$ 25 10
$ 25 21
$ 26  6
$ 26 16
$ 27  2
$ 27  8
$ 27 17
$ 28  7
$ 28 17
$ 28 18
$ 29  2
$ 29  7
$ 29 18
$ 30 10
$ 30 12
$ 30 17
$ 31  1
$ 31 15
$ 31 21
$ 32  3
$ 32 18
$ 32 21
$ 33  5
$ 33 20
$ 34 10
$ 35  7
$ 35 19

